(set-info :source |printed by MathSAT|)
(declare-fun |.x{156}| () Int)
(declare-fun |.x{171}| () Int)
(declare-fun |.x{157}| () Int)
(declare-fun |.x{172}| () Int)
(declare-fun |.x{158}| () Int)
(declare-fun |.x{173}| () Int)
(declare-fun |.y{7}| () (Array Int Int))
(declare-fun |.x{174}| () (Array Int Int))
(declare-fun |.x{159}| () Int)
(declare-fun |.x{170}| () Int)
(declare-fun |.x{160}| () Int)
(declare-fun |.y{11}| () Int)
(declare-fun |.y{8}| () Int)
(declare-fun |.y{12}| () Int)
(declare-fun |.y{9}| () Int)
(declare-fun |.y{13}| () Int)
(declare-fun |.y{10}| () Int)
(declare-fun |.y{14}| () Int)
(declare-fun |.x{161}| () (Array Int Int))
(declare-fun |.y{15}| () (Array Int Int))
(declare-fun |.x{162}| () Int)
(declare-fun |.y{16}| () Int)
(declare-fun |.loc{4}| () Bool)
(declare-fun |.loc{7}| () Bool)
(declare-fun |.loc{5}| () Bool)
(declare-fun |.loc{8}| () Bool)
(declare-fun |.loc{6}| () Bool)
(declare-fun |.loc{9}| () Bool)
(declare-fun |.x{183}| () Int)
(declare-fun |.x{141}| () Int)
(declare-fun |.x{143}| () Int)
(declare-fun |.x{203}| () Int)
(define-fun .def_30 () Bool (! |.loc{4}| :next |.loc{7}|))
(define-fun .def_93 () Bool (not .def_30))
(define-fun .def_32 () Bool (! |.loc{5}| :next |.loc{8}|))
(define-fun .def_57 () Bool (not .def_32))
(define-fun .def_266 () Bool (and .def_57 .def_93))
(define-fun .def_34 () Bool (! |.loc{6}| :next |.loc{9}|))
(define-fun .def_49 () Bool (not .def_34))
(define-fun .def_267 () Bool (! (and .def_49 .def_266) :init true))
(define-fun .def_12 () Int (! |.x{158}| :next |.x{173}|))
(define-fun .def_249 () Bool (= .def_12 0))
(define-fun .def_250 () Bool (not .def_249))
(define-fun .def_26 () (Array Int Int) (! |.x{161}| :next |.y{15}|))
(define-fun .def_246 () Bool (= |.x{174}| .def_26))
(define-fun .def_16 () Int (! |.x{159}| :next |.x{170}|))
(define-fun .def_244 () Bool (= |.x{173}| .def_16))
(define-fun .def_242 () Bool (and .def_30 .def_32))
(define-fun .def_243 () Bool (and .def_49 .def_242))
(define-fun .def_245 () Bool (and .def_243 .def_244))
(define-fun .def_247 () Bool (and .def_245 .def_246))
(define-fun .def_248 () Bool (and .def_246 .def_247))
(define-fun .def_251 () Bool (and .def_248 .def_250))
(define-fun .def_147 () Bool (= |.x{170}| 0))
(define-fun .def_252 () Bool (and .def_147 .def_251))
(define-fun .def_28 () Int (! |.x{162}| :next |.y{16}|))
(define-fun .def_193 () Int (* (- 1) .def_28))
(define-fun .def_18 () Int (! |.x{160}| :next |.y{11}|))
(define-fun .def_194 () Int (+ .def_18 .def_193))
(define-fun .def_195 () Bool (<= (- 1) .def_194))
(define-fun .def_253 () Bool (and .def_195 .def_252))
(define-fun .def_238 () Bool (<= .def_12 .def_16))
(define-fun .def_239 () Bool (not .def_238))
(define-fun .def_14 () (Array Int Int) (! |.y{7}| :next |.x{174}|))
(define-fun .def_122 () Int (select .def_14 |.x{183}|))
(define-fun .def_10 () Int (! |.x{157}| :next |.x{172}|))
(define-fun .def_235 () Bool (= .def_10 .def_122))
(define-fun .def_236 () Bool (not .def_235))
(define-fun .def_8 () Int (! |.x{156}| :next |.x{171}|))
(define-fun .def_96 () Bool (<= .def_8 0))
(define-fun .def_40 () Bool (<= |.x{183}| 0))
(define-fun .def_41 () Bool (not .def_40))
(define-fun .def_98 () Bool (or .def_41 .def_96))
(define-fun .def_97 () Bool (not .def_96))
(define-fun .def_99 () Bool (and .def_97 .def_98))
(define-fun .def_229 () Bool (and .def_34 .def_99))
(define-fun .def_102 () Int (* (- 1) |.x{170}|))
(define-fun .def_103 () Int (+ .def_16 .def_102))
(define-fun .def_104 () Bool (= .def_103 (- 1)))
(define-fun .def_230 () Bool (and .def_104 .def_229))
(define-fun .def_170 () Bool (= .def_12 |.x{173}|))
(define-fun .def_231 () Bool (and .def_170 .def_230))
(define-fun .def_111 () Bool (= .def_14 |.x{174}|))
(define-fun .def_232 () Bool (and .def_111 .def_231))
(define-fun .def_233 () Bool (and .def_57 .def_232))
(define-fun .def_234 () Bool (and .def_93 .def_233))
(define-fun .def_237 () Bool (and .def_234 .def_236))
(define-fun .def_240 () Bool (and .def_237 .def_239))
(define-fun .def_76 () Int (* (- 1) |.x{183}|))
(define-fun .def_131 () Int (+ .def_16 .def_76))
(define-fun .def_132 () Int (+ .def_8 .def_131))
(define-fun .def_133 () Bool (= .def_132 0))
(define-fun .def_241 () Bool (and .def_133 .def_240))
(define-fun .def_254 () Bool (or .def_241 .def_253))
(define-fun .def_55 () Bool (= .def_10 |.x{172}|))
(define-fun .def_255 () Bool (and .def_55 .def_254))
(define-fun .def_256 () Bool (and |.loc{9}| .def_255))
(define-fun .def_120 () Bool (not |.loc{7}|))
(define-fun .def_257 () Bool (and .def_120 .def_256))
(define-fun .def_60 () Bool (not |.loc{8}|))
(define-fun .def_258 () Bool (and .def_60 .def_257))
(define-fun .def_22 () Int (! |.y{9}| :next |.y{13}|))
(define-fun .def_227 () Bool (= |.x{170}| .def_22))
(define-fun .def_20 () Int (! |.y{8}| :next |.y{12}|))
(define-fun .def_225 () Bool (= |.x{173}| .def_20))
(define-fun .def_223 () Bool (= |.x{172}| .def_18))
(define-fun .def_24 () Int (! |.y{10}| :next |.y{14}|))
(define-fun .def_116 () Bool (<= .def_24 .def_16))
(define-fun .def_117 () Bool (not .def_116))
(define-fun .def_113 () Bool (= .def_20 0))
(define-fun .def_220 () Bool (and .def_113 .def_117))
(define-fun .def_221 () Bool (not .def_220))
(define-fun .def_215 () Bool (not .def_113))
(define-fun .def_213 () Bool (= .def_14 |.y{15}|))
(define-fun .def_211 () Bool (= |.y{11}| .def_22))
(define-fun .def_207 () Bool (= .def_24 |.y{16}|))
(define-fun .def_208 () Bool (and .def_32 .def_207))
(define-fun .def_47 () Bool (not |.loc{9}|))
(define-fun .def_209 () Bool (and .def_47 .def_208))
(define-fun .def_210 () Bool (and .def_49 .def_209))
(define-fun .def_212 () Bool (and .def_210 .def_211))
(define-fun .def_214 () Bool (and .def_212 .def_213))
(define-fun .def_216 () Bool (and .def_214 .def_215))
(define-fun .def_217 () Bool (and |.loc{7}| .def_216))
(define-fun .def_218 () Bool (and .def_93 .def_217))
(define-fun .def_219 () Bool (and |.loc{8}| .def_218))
(define-fun .def_222 () Bool (and .def_219 .def_221))
(define-fun .def_224 () Bool (and .def_222 .def_223))
(define-fun .def_226 () Bool (and .def_224 .def_225))
(define-fun .def_228 () Bool (and .def_226 .def_227))
(define-fun .def_259 () Bool (or .def_228 .def_258))
(define-fun .def_204 () Int (+ .def_18 .def_76))
(define-fun .def_205 () Bool (= .def_204 (- 1)))
(define-fun .def_202 () Bool (= .def_28 |.y{16}|))
(define-fun .def_198 () Int (select .def_26 |.x{141}|))
(define-fun .def_199 () (Array Int Int) (store .def_26 |.x{143}| .def_198))
(define-fun .def_200 () Bool (= |.y{15}| .def_199))
(define-fun .def_196 () Bool (not .def_195))
(define-fun .def_188 () Int (* (- 1) |.y{11}|))
(define-fun .def_189 () Int (+ .def_18 .def_188))
(define-fun .def_190 () Bool (= .def_189 (- 1)))
(define-fun .def_183 () Bool (<= |.x{143}| 0))
(define-fun .def_184 () Bool (not .def_183))
(define-fun .def_185 () Bool (or .def_96 .def_184))
(define-fun .def_177 () Int (* (- 1) |.x{143}|))
(define-fun .def_178 () Int (+ .def_18 .def_177))
(define-fun .def_179 () Int (+ .def_8 .def_178))
(define-fun .def_180 () Bool (= .def_179 0))
(define-fun .def_166 () Bool (<= |.x{141}| 0))
(define-fun .def_167 () Bool (not .def_166))
(define-fun .def_168 () Bool (or .def_96 .def_167))
(define-fun .def_159 () Int (* (- 1) |.x{141}|))
(define-fun .def_160 () Int (+ |.x{183}| .def_159))
(define-fun .def_161 () Int (+ .def_8 .def_160))
(define-fun .def_162 () Bool (= .def_161 0))
(define-fun .def_154 () Bool (and .def_30 .def_97))
(define-fun .def_155 () Bool (and .def_32 .def_154))
(define-fun .def_163 () Bool (and .def_155 .def_162))
(define-fun .def_164 () Bool (and .def_47 .def_163))
(define-fun .def_165 () Bool (and .def_49 .def_164))
(define-fun .def_169 () Bool (and .def_165 .def_168))
(define-fun .def_171 () Bool (and .def_169 .def_170))
(define-fun .def_172 () Bool (and .def_55 .def_171))
(define-fun .def_181 () Bool (and .def_172 .def_180))
(define-fun .def_182 () Bool (and |.loc{7}| .def_181))
(define-fun .def_186 () Bool (and .def_182 .def_185))
(define-fun .def_187 () Bool (and |.loc{8}| .def_186))
(define-fun .def_191 () Bool (and .def_187 .def_190))
(define-fun .def_74 () Bool (= .def_16 |.x{170}|))
(define-fun .def_192 () Bool (and .def_74 .def_191))
(define-fun .def_197 () Bool (and .def_192 .def_196))
(define-fun .def_201 () Bool (and .def_197 .def_200))
(define-fun .def_203 () Bool (and .def_201 .def_202))
(define-fun .def_206 () Bool (and .def_203 .def_205))
(define-fun .def_260 () Bool (or .def_206 .def_259))
(define-fun .def_53 () Bool (= .def_8 |.x{171}|))
(define-fun .def_261 () Bool (and .def_53 .def_260))
(define-fun .def_151 () Bool (= |.y{12}| 0))
(define-fun .def_149 () Bool (= .def_20 |.y{13}|))
(define-fun .def_139 () Bool (= .def_18 |.y{14}|))
(define-fun .def_136 () Bool (= |.x{171}| .def_10))
(define-fun .def_135 () Bool (= .def_16 |.y{11}|))
(define-fun .def_137 () Bool (and .def_135 .def_136))
(define-fun .def_138 () Bool (and .def_30 .def_137))
(define-fun .def_140 () Bool (and .def_138 .def_139))
(define-fun .def_141 () Bool (and .def_47 .def_140))
(define-fun .def_142 () Bool (and .def_49 .def_141))
(define-fun .def_143 () Bool (and .def_111 .def_142))
(define-fun .def_144 () Bool (and .def_57 .def_143))
(define-fun .def_145 () Bool (and |.loc{8}| .def_144))
(define-fun .def_146 () Bool (and .def_120 .def_145))
(define-fun .def_148 () Bool (and .def_146 .def_147))
(define-fun .def_150 () Bool (and .def_148 .def_149))
(define-fun .def_152 () Bool (and .def_150 .def_151))
(define-fun .def_71 () Bool (<= .def_18 .def_12))
(define-fun .def_153 () Bool (and .def_71 .def_152))
(define-fun .def_262 () Bool (or .def_153 .def_261))
(define-fun .def_123 () Bool (= .def_18 .def_122))
(define-fun .def_128 () Int (ite .def_123 1 .def_20))
(define-fun .def_129 () Bool (= |.y{12}| .def_128))
(define-fun .def_124 () Int (ite .def_123 .def_16 .def_22))
(define-fun .def_125 () Bool (= |.y{13}| .def_124))
(define-fun .def_106 () Bool (= .def_24 |.y{14}|))
(define-fun .def_100 () Bool (and .def_32 .def_99))
(define-fun .def_45 () Bool (= .def_18 |.y{11}|))
(define-fun .def_101 () Bool (and .def_45 .def_100))
(define-fun .def_105 () Bool (and .def_101 .def_104))
(define-fun .def_107 () Bool (and .def_105 .def_106))
(define-fun .def_108 () Bool (and .def_47 .def_107))
(define-fun .def_109 () Bool (and .def_49 .def_108))
(define-fun .def_110 () Bool (and .def_53 .def_109))
(define-fun .def_112 () Bool (and .def_110 .def_111))
(define-fun .def_114 () Bool (and .def_112 .def_113))
(define-fun .def_115 () Bool (and .def_93 .def_114))
(define-fun .def_118 () Bool (and .def_115 .def_117))
(define-fun .def_119 () Bool (and |.loc{8}| .def_118))
(define-fun .def_121 () Bool (and .def_119 .def_120))
(define-fun .def_126 () Bool (and .def_121 .def_125))
(define-fun .def_130 () Bool (and .def_126 .def_129))
(define-fun .def_134 () Bool (and .def_130 .def_133))
(define-fun .def_263 () Bool (or .def_134 .def_262))
(define-fun .def_85 () Bool (<= |.y{11}| 0))
(define-fun .def_86 () Bool (not .def_85))
(define-fun .def_83 () Bool (= |.x{173}| 0))
(define-fun .def_81 () Bool (<= |.x{172}| 0))
(define-fun .def_82 () Bool (not .def_81))
(define-fun .def_84 () Bool (and .def_82 .def_83))
(define-fun .def_87 () Bool (and .def_84 .def_86))
(define-fun .def_88 () Bool (and .def_47 .def_87))
(define-fun .def_89 () Bool (and .def_49 .def_88))
(define-fun .def_90 () Bool (and .def_53 .def_89))
(define-fun .def_91 () Bool (and .def_57 .def_90))
(define-fun .def_92 () Bool (and |.loc{7}| .def_91))
(define-fun .def_94 () Bool (and .def_92 .def_93))
(define-fun .def_95 () Bool (and .def_60 .def_94))
(define-fun .def_264 () Bool (or .def_95 .def_263))
(define-fun .def_77 () Int (+ .def_12 .def_76))
(define-fun .def_78 () Int (+ .def_10 .def_77))
(define-fun .def_79 () Bool (= .def_78 0))
(define-fun .def_72 () Bool (not .def_71))
(define-fun .def_68 () (Array Int Int) (store .def_14 |.x{183}| |.x{141}|))
(define-fun .def_69 () Bool (= |.x{174}| .def_68))
(define-fun .def_63 () Int (* (- 1) |.x{173}|))
(define-fun .def_64 () Int (+ .def_12 .def_63))
(define-fun .def_65 () Bool (= .def_64 (- 1)))
(define-fun .def_51 () Bool (= .def_20 |.y{12}|))
(define-fun .def_37 () Bool (<= .def_10 0))
(define-fun .def_42 () Bool (or .def_37 .def_41))
(define-fun .def_38 () Bool (not .def_37))
(define-fun .def_43 () Bool (and .def_38 .def_42))
(define-fun .def_44 () Bool (and .def_30 .def_43))
(define-fun .def_46 () Bool (and .def_44 .def_45))
(define-fun .def_48 () Bool (and .def_46 .def_47))
(define-fun .def_50 () Bool (and .def_48 .def_49))
(define-fun .def_52 () Bool (and .def_50 .def_51))
(define-fun .def_54 () Bool (and .def_52 .def_53))
(define-fun .def_56 () Bool (and .def_54 .def_55))
(define-fun .def_58 () Bool (and .def_56 .def_57))
(define-fun .def_59 () Bool (and |.loc{7}| .def_58))
(define-fun .def_61 () Bool (and .def_59 .def_60))
(define-fun .def_66 () Bool (and .def_61 .def_65))
(define-fun .def_70 () Bool (and .def_66 .def_69))
(define-fun .def_73 () Bool (and .def_70 .def_72))
(define-fun .def_75 () Bool (and .def_73 .def_74))
(define-fun .def_80 () Bool (and .def_75 .def_79))
(define-fun .def_265 () Bool (! (or .def_80 .def_264) :trans true))
(define-fun .def_268 () Int (! |.x{203}| :next |.xpv{1}|))
(define-fun .def_282 () Bool (and .def_34 .def_266))
(define-fun .def_279 () Int (select .def_14 .def_268))
(define-fun .def_280 () Bool (= .def_10 .def_279))
(define-fun .def_272 () Int (* (- 1) .def_268))
(define-fun .def_273 () Int (+ .def_16 .def_272))
(define-fun .def_274 () Int (+ .def_8 .def_273))
(define-fun .def_275 () Bool (= .def_274 0))
(define-fun .def_276 () Bool (and .def_239 .def_275))
(define-fun .def_269 () Bool (<= .def_268 0))
(define-fun .def_270 () Bool (not .def_269))
(define-fun .def_271 () Bool (or .def_96 .def_270))
(define-fun .def_277 () Bool (and .def_271 .def_276))
(define-fun .def_278 () Bool (and .def_97 .def_277))
(define-fun .def_281 () Bool (and .def_278 .def_280))
(define-fun .def_283 () Bool (and .def_281 .def_282))
(define-fun .def_285 () Bool (! (not .def_283) :invar-property 0))
(assert true)
